c FILE: hole7.cnf
c SOURCE: file mkhole.ml of Sylvain.Boulme@imag.fr
c DESCRIPTION: placing each of 8 pigeons in 7 distinct holes (one pigeon by hole)
c NOTE: Not Satisfiable
p cnf 56 204
56 55 54 53 52 51 50 0
49 48 47 46 45 44 43 0
42 41 40 39 38 37 36 0
35 34 33 32 31 30 29 0
28 27 26 25 24 23 22 0
21 20 19 18 17 16 15 0
14 13 12 11 10 9 8 0
7 6 5 4 3 2 1 0
-56 -49 0
-56 -42 0
-56 -35 0
-56 -28 0
-56 -21 0
-56 -14 0
-56 -7 0
-49 -42 0
-49 -35 0
-49 -28 0
-49 -21 0
-49 -14 0
-49 -7 0
-42 -35 0
-42 -28 0
-42 -21 0
-42 -14 0
-42 -7 0
-35 -28 0
-35 -21 0
-35 -14 0
-35 -7 0
-28 -21 0
-28 -14 0
-28 -7 0
-21 -14 0
-21 -7 0
-14 -7 0
-55 -48 0
-55 -41 0
-55 -34 0
-55 -27 0
-55 -20 0
-55 -13 0
-55 -6 0
-48 -41 0
-48 -34 0
-48 -27 0
-48 -20 0
-48 -13 0
-48 -6 0
-41 -34 0
-41 -27 0
-41 -20 0
-41 -13 0
-41 -6 0
-34 -27 0
-34 -20 0
-34 -13 0
-34 -6 0
-27 -20 0
-27 -13 0
-27 -6 0
-20 -13 0
-20 -6 0
-13 -6 0
-54 -47 0
-54 -40 0
-54 -33 0
-54 -26 0
-54 -19 0
-54 -12 0
-54 -5 0
-47 -40 0
-47 -33 0
-47 -26 0
-47 -19 0
-47 -12 0
-47 -5 0
-40 -33 0
-40 -26 0
-40 -19 0
-40 -12 0
-40 -5 0
-33 -26 0
-33 -19 0
-33 -12 0
-33 -5 0
-26 -19 0
-26 -12 0
-26 -5 0
-19 -12 0
-19 -5 0
-12 -5 0
-53 -46 0
-53 -39 0
-53 -32 0
-53 -25 0
-53 -18 0
-53 -11 0
-53 -4 0
-46 -39 0
-46 -32 0
-46 -25 0
-46 -18 0
-46 -11 0
-46 -4 0
-39 -32 0
-39 -25 0
-39 -18 0
-39 -11 0
-39 -4 0
-32 -25 0
-32 -18 0
-32 -11 0
-32 -4 0
-25 -18 0
-25 -11 0
-25 -4 0
-18 -11 0
-18 -4 0
-11 -4 0
-52 -45 0
-52 -38 0
-52 -31 0
-52 -24 0
-52 -17 0
-52 -10 0
-52 -3 0
-45 -38 0
-45 -31 0
-45 -24 0
-45 -17 0
-45 -10 0
-45 -3 0
-38 -31 0
-38 -24 0
-38 -17 0
-38 -10 0
-38 -3 0
-31 -24 0
-31 -17 0
-31 -10 0
-31 -3 0
-24 -17 0
-24 -10 0
-24 -3 0
-17 -10 0
-17 -3 0
-10 -3 0
-51 -44 0
-51 -37 0
-51 -30 0
-51 -23 0
-51 -16 0
-51 -9 0
-51 -2 0
-44 -37 0
-44 -30 0
-44 -23 0
-44 -16 0
-44 -9 0
-44 -2 0
-37 -30 0
-37 -23 0
-37 -16 0
-37 -9 0
-37 -2 0
-30 -23 0
-30 -16 0
-30 -9 0
-30 -2 0
-23 -16 0
-23 -9 0
-23 -2 0
-16 -9 0
-16 -2 0
-9 -2 0
-50 -43 0
-50 -36 0
-50 -29 0
-50 -22 0
-50 -15 0
-50 -8 0
-50 -1 0
-43 -36 0
-43 -29 0
-43 -22 0
-43 -15 0
-43 -8 0
-43 -1 0
-36 -29 0
-36 -22 0
-36 -15 0
-36 -8 0
-36 -1 0
-29 -22 0
-29 -15 0
-29 -8 0
-29 -1 0
-22 -15 0
-22 -8 0
-22 -1 0
-15 -8 0
-15 -1 0
-8 -1 0
